Problem:    
Rows:       113
Columns:    45 (34 integer, 34 binary)
Non-zeros:  354
Status:     INTEGER OPTIMAL
Objective:  value = 21.3496 (MINimum)

   No.   Row name        Activity     Lower bound   Upper bound
------ ------------    ------------- ------------- -------------
     1 r.5                   21.3496             0               
     2 r.6                   21.3496      -962.434               
     3 r.7                   1021.35             0               
     4 r.8                  -992.153      -993.394               
     5 r.9                   1021.35             0               
     6 r.10                  -978.65       -992.21               
     7 r.11                  21.3496             0               
     8 r.12                  21.3496      -997.573               
     9 r.13                  21.3496             0               
    10 r.14                  21.3496       -937.44               
    11 r.15                  1021.35             0               
    12 r.16                 -981.088      -988.935               
    13 r.17                  21.3496             0               
    14 r.18                  21.3496        -983.9               
    15 r.19                  1021.35             0               
    16 r.20                  -978.65      -997.563               
    17 r.21                  21.3496             0               
    18 r.22                   1.2419      -999.829               
    19 r.23                  1021.35             0               
    20 r.24                 -998.758      -998.758               
    21 r.25                        1             1             = 
    22 r.26                        1             1             = 
    23 r.27                        1             1             = 
    24 r.28                        1             1             = 
    25 r.29                        1             1             = 
    26 r.30                     1001             2               
    27 r.31                    -1001         -1001               
    28 r.32                     2000       -992.21               
    29 r.33                     1001             2               
    30 r.34                    -1001         -1001               
    31 r.35                   2013.5      -997.573               
    32 r.36                     1000             2               
    33 r.37                    -1000         -1001               
    34 r.38                     2000       -937.44               
    35 r.39                        2             2               
    36 r.40                       -2         -1001               
    37 r.41                 -988.935      -988.935               
    38 r.42                     1000             2               
    39 r.43                    -1000         -1001               
    40 r.44                     2000        -983.9               
    41 r.45                        2             2               
    42 r.46                       -2         -1001               
    43 r.47                 -986.498      -997.563               
    44 r.48                  20.1077      -962.434               
    45 r.49                 -993.394      -993.394               
    46 r.50                  20.1077      -962.434               
    47 r.51                 -993.394      -993.394               
    48 r.52                     1001             2               
    49 r.53                    -1001         -1001               
    50 r.54                     2000       37.5661               
    51 r.55                     1001             2               
    52 r.56                    -1001         -1001               
    53 r.57                   1986.5        6.6055               
    54 r.58                     1001             2               
    55 r.59                    -1001         -1001               
    56 r.60                     2000       -937.44               
    57 r.61                     1001             2               
    58 r.62                    -1001         -1001               
    59 r.63                  1997.56      -988.935               
    60 r.64                     1001             2               
    61 r.65                    -1001         -1001               
    62 r.66                     2000        -983.9               
    63 r.67                     1001             2               
    64 r.68                    -1001         -1001               
    65 r.69                     2000      -997.563               
    66 r.70                 -979.892       -992.21               
    67 r.71                  20.1077      -997.573               
    68 r.72                 -979.892       -992.21               
    69 r.73                  20.1077      -997.573               
    70 r.74                     1000             2               
    71 r.75                    -1000         -1001               
    72 r.76                     2000       37.5661               
    73 r.77                        2             2               
    74 r.78                       -2         -1001               
    75 r.79                  988.935        6.6055               
    76 r.80                     1001             2               
    77 r.81                    -1001         -1001               
    78 r.82                     2000        7.7904               
    79 r.83                     1001             2               
    80 r.84                    -1001         -1001               
    81 r.85                  2002.44         2.427               
    82 r.86                     1000             2               
    83 r.87                    -1000         -1001               
    84 r.88                     2000        -983.9               
    85 r.89                        2             2               
    86 r.90                       -2         -1001               
    87 r.91                 -997.563      -997.563               
    88 r.92                  20.1077       -937.44               
    89 r.93                 -982.329      -988.935               
    90 r.94                  20.1077       -937.44               
    91 r.95                 -982.329      -988.935               
    92 r.96                     1000             2               
    93 r.97                    -1000         -1001               
    94 r.98                     2000       37.5661               
    95 r.99                        2             2               
    96 r.100                      -2         -1001               
    97 r.101                 986.498        6.6055               
    98 r.102                    1001             2               
    99 r.103                   -1001         -1001               
   100 r.104                    2000        7.7904               
   101 r.105                    1001             2               
   102 r.106                   -1001         -1001               
   103 r.107                    2000         2.427               
   104 r.108                    1000             2               
   105 r.109                   -1000         -1001               
   106 r.110                    2000       62.5602               
   107 r.111                       2             2               
   108 r.112                      -2         -1001               
   109 r.113                 997.563        11.065               
   110 r.114                 20.1077        -983.9               
   111 r.115                -979.892      -997.563               
   112 r.116                 20.1077        -983.9               
   113 r.117                -979.892      -997.563               

   No. Column name       Activity     Lower bound   Upper bound
------ ------------    ------------- ------------- -------------
     1 tt                    21.3496             0               
     2 s_1_1        *              0             0             1 
     3 t_1_1                       0             0               
     4 s_2_1        *              1             0             1 
     5 t_2_1                 13.5022             0               
     6 s_1_2        *              1             0             1 
     7 t_1_2                       0             0               
     8 s_2_2        *              0             0             1 
     9 t_2_2                       0             0               
    10 s_1_3        *              0             0             1 
    11 t_1_3                       0             0               
    12 s_2_3        *              1             0             1 
    13 t_2_3                  2.4372             0               
    14 s_1_4        *              0             0             1 
    15 t_1_4                       0             0               
    16 s_2_4        *              1             0             1 
    17 t_2_4                       0             0               
    18 s_1_5        *              0             0             1 
    19 t_1_5                 20.1077             0               
    20 s_2_5        *              1             0             1 
    21 t_2_5                 20.1077             0               
    22 r_1_1_2      *              1             0             1 
    23 u_1_1_2      *              0             0             1 
    24 r_2_1_2      *              1             0             1 
    25 u_2_1_2      *              0             0             1 
    26 r_1_1_3      *              1             0             1 
    27 u_1_1_3      *              0             0             1 
    28 r_2_1_3      *              0             0             1 
    29 u_2_1_3      *              1             0             1 
    30 r_1_1_4      *              1             0             1 
    31 u_1_1_4      *              0             0             1 
    32 r_2_1_4      *              0             0             1 
    33 u_2_1_4      *              1             0             1 
    34 r_1_2_3      *              1             0             1 
    35 u_1_2_3      *              0             0             1 
    36 r_2_2_3      *              1             0             1 
    37 u_2_2_3      *              0             0             1 
    38 r_1_2_4      *              1             0             1 
    39 u_1_2_4      *              0             0             1 
    40 r_2_2_4      *              1             0             1 
    41 u_2_2_4      *              0             0             1 
    42 r_1_3_4      *              1             0             1 
    43 u_1_3_4      *              0             0             1 
    44 r_2_3_4      *              0             0             1 
    45 u_2_3_4      *              1             0             1 

Integer feasibility conditions:

KKT.PE: max.abs.err = 0.00e+00 on row 0
        max.rel.err = 0.00e+00 on row 0
        High quality

KKT.PB: max.abs.err = 0.00e+00 on row 0
        max.rel.err = 0.00e+00 on row 0
        High quality

End of output
